# Solution for model count
# Objective value = 10
z#1 1
z#2 0
z#3 1
z#4 0
z#5 1
z#6 1
z#7 0
z#8 1
z#9 0
z#10 0
z#11 1
z#12 0
z#13 1
z#14 1
z#15 0
z#16 0
z#17 0
z#18 0
z#19 1
z#20 0
z#21 1
z#22 0
z#23 0
z#24 0
x#24 0
x#23 0
x#22 0
x#21 546
x#20 0
x#19 1054
x#18 0
x#17 0
x#16 0
x#15 0
x#14 202
x#13 786
x#12 0
x#11 785
x#10 0
x#9 0
x#8 169
x#7 0
x#6 2853
x#5 658
x#4 0
x#3 2345
x#2 0
x#1 602
